c FILE /home/rafael/Documents/HappySet/MIHS/inputs/happygen/output/graph_scale_free_k20_p0.4_v100_20241127_083931.txt
c SOURCE This is a scale-free graph formed for the happy graph colouring problem.
c DESCRIPTION It was generated using the problem generator of Rhyd Lewis
c
c GRAPH STATS
c Seed                             = 860083282
c Number of Nodes                  = 100
c Number of colours k              = 20
c Number of pre-assignments        = 40
c Number of links per new node     = 5
c Density                          = 0.0979798
c 
c The degrees of nodes 1 to 100, respectively, are as follows 
c [38, 33, 30, 29, 29, 29, 27, 23, 21, 21, 19, 18, 18, 17, 17, 16, 15, 15, 13, 13, 12, 11, 11, 11, 11, 11, 
c  10, 10, 10, 9, 9, 9, 9, 9, 8, 8, 8, 7, 7, 7, 7, 7, 7, 7, 7, 7, 7, 7, 7, 7, 7, 
c  6, 6, 6, 6, 6, 6, 6, 6, 6, 6, 6, 6, 6, 6, 6, 6, 6, 6, 6, 6, 5, 5, 5, 5, 5, 
c  5, 5, 5, 5, 5, 5, 5, 5, 5, 5, 5, 5, 5, 5, 5, 5, 5, 5, 5, 5, 5, 5, 5, 5] 
c  
p edge 100 485 20
e 1 2
e 1 3
e 1 4
e 1 5
e 1 6
e 1 7
e 1 9
e 1 11
e 1 12
e 1 13
e 1 14
e 1 16
e 1 17
e 1 18
e 1 20
e 1 24
e 1 31
e 1 36
e 1 37
e 1 38
e 1 40
e 1 41
e 1 42
e 1 43
e 1 52
e 1 55
e 1 56
e 1 62
e 1 65
e 1 69
e 1 72
e 1 74
e 1 76
e 1 77
e 1 78
e 1 80
e 1 94
e 1 97
e 2 3
e 2 5
e 2 8
e 2 10
e 2 12
e 2 15
e 2 18
e 2 19
e 2 20
e 2 22
e 2 23
e 2 24
e 2 30
e 2 31
e 2 32
e 2 34
e 2 39
e 2 40
e 2 43
e 2 45
e 2 50
e 2 52
e 2 53
e 2 55
e 2 57
e 2 60
e 2 65
e 2 74
e 2 82
e 2 89
e 2 95
e 2 96
e 3 4
e 3 5
e 3 6
e 3 7
e 3 8
e 3 9
e 3 10
e 3 11
e 3 12
e 3 16
e 3 17
e 3 21
e 3 22
e 3 23
e 3 28
e 3 29
e 3 30
e 3 32
e 3 34
e 3 35
e 3 41
e 3 56
e 3 72
e 3 73
e 3 79
e 3 84
e 3 86
e 3 91
e 4 5
e 4 6
e 4 7
e 4 8
e 4 9
e 4 10
e 4 11
e 4 12
e 4 13
e 4 14
e 4 19
e 4 20
e 4 23
e 4 33
e 4 34
e 4 45
e 4 47
e 4 48
e 4 50
e 4 58
e 4 59
e 4 64
e 4 81
e 4 91
e 4 93
e 4 95
e 4 97
e 5 6
e 5 7
e 5 8
e 5 9
e 5 12
e 5 14
e 5 17
e 5 18
e 5 19
e 5 23
e 5 24
e 5 26
e 5 28
e 5 38
e 5 41
e 5 43
e 5 44
e 5 54
e 5 56
e 5 58
e 5 71
e 5 73
e 5 83
e 5 87
e 5 88
e 6 7
e 6 10
e 6 13
e 6 17
e 6 21
e 6 22
e 6 25
e 6 28
e 6 30
e 6 35
e 6 39
e 6 42
e 6 45
e 6 47
e 6 49
e 6 51
e 6 55
e 6 62
e 6 64
e 6 66
e 6 67
e 6 69
e 6 72
e 6 97
e 6 99
e 7 9
e 7 12
e 7 15
e 7 16
e 7 17
e 7 18
e 7 19
e 7 21
e 7 22
e 7 24
e 7 32
e 7 38
e 7 39
e 7 54
e 7 57
e 7 78
e 7 79
e 7 83
e 7 90
e 7 92
e 7 96
e 7 98
e 8 17
e 8 26
e 8 27
e 8 28
e 8 29
e 8 39
e 8 40
e 8 41
e 8 44
e 8 56
e 8 57
e 8 60
e 8 70
e 8 75
e 8 79
e 8 81
e 8 87
e 8 92
e 8 95
e 9 10
e 9 14
e 9 20
e 9 27
e 9 31
e 9 40
e 9 48
e 9 53
e 9 54
e 9 60
e 9 67
e 9 76
e 9 77
e 9 86
e 9 92
e 9 93
e 10 13
e 10 17
e 10 21
e 10 22
e 10 27
e 10 32
e 10 35
e 10 44
e 10 50
e 10 60
e 10 61
e 10 66
e 10 67
e 10 70
e 10 89
e 10 90
e 11 16
e 11 17
e 11 35
e 11 38
e 11 46
e 11 59
e 11 60
e 11 65
e 11 73
e 11 77
e 11 78
e 11 81
e 11 82
e 11 83
e 11 98
e 11 100
e 12 13
e 12 21
e 12 25
e 12 47
e 12 52
e 12 63
e 12 66
e 12 68
e 12 73
e 12 85
e 12 90
e 12 97
e 13 16
e 13 18
e 13 27
e 13 30
e 13 37
e 13 54
e 13 58
e 13 62
e 13 69
e 13 75
e 13 80
e 13 82
e 13 83
e 14 19
e 14 20
e 14 24
e 14 25
e 14 36
e 14 40
e 14 41
e 14 46
e 14 61
e 14 62
e 14 70
e 14 82
e 14 99
e 15 18
e 15 21
e 15 25
e 15 27
e 15 33
e 15 36
e 15 53
e 15 57
e 15 62
e 15 69
e 15 76
e 15 88
e 15 89
e 15 92
e 15 96
e 16 17
e 16 38
e 16 43
e 16 47
e 16 51
e 16 52
e 16 56
e 16 65
e 16 68
e 16 72
e 16 75
e 17 19
e 17 27
e 17 33
e 17 46
e 17 49
e 17 75
e 18 23
e 18 31
e 18 37
e 18 39
e 18 47
e 18 52
e 18 59
e 18 82
e 18 94
e 19 35
e 19 36
e 19 55
e 19 61
e 19 83
e 19 85
e 19 93
e 20 29
e 20 46
e 20 63
e 20 70
e 20 73
e 20 74
e 20 75
e 20 100
e 21 28
e 21 30
e 21 44
e 21 61
e 21 74
e 21 80
e 22 33
e 22 44
e 22 45
e 22 49
e 22 79
e 22 93
e 23 31
e 23 45
e 23 72
e 23 74
e 23 77
e 23 96
e 24 37
e 24 46
e 24 68
e 24 71
e 24 79
e 24 86
e 25 28
e 25 50
e 25 64
e 25 80
e 25 85
e 25 88
e 25 94
e 26 35
e 26 37
e 26 41
e 26 48
e 26 55
e 26 61
e 26 78
e 26 84
e 26 94
e 27 34
e 27 48
e 27 53
e 27 81
e 28 29
e 28 65
e 28 71
e 28 98
e 29 30
e 29 42
e 29 49
e 29 51
e 29 92
e 29 100
e 30 55
e 30 58
e 30 76
e 31 42
e 31 71
e 31 86
e 31 87
e 32 53
e 32 57
e 32 59
e 32 78
e 32 97
e 33 35
e 33 64
e 33 80
e 33 88
e 33 95
e 34 37
e 34 66
e 34 69
e 34 70
e 34 84
e 35 42
e 36 39
e 36 48
e 36 51
e 36 96
e 37 87
e 37 89
e 38 49
e 38 100
e 39 53
e 40 54
e 40 98
e 41 51
e 42 43
e 42 84
e 43 66
e 43 94
e 44 88
e 44 90
e 45 50
e 45 85
e 46 81
e 46 93
e 47 64
e 47 85
e 48 90
e 48 91
e 49 67
e 49 91
e 50 99
e 50 100
e 51 87
e 51 95
e 52 67
e 54 58
e 56 77
e 57 76
e 58 59
e 59 84
e 60 63
e 61 63
e 62 63
e 63 99
e 64 89
e 65 68
e 66 68
e 67 98
e 68 86
e 69 91
e 70 71
e 71 99
n 18 12
n 24 18
n 26 5
n 28 3
n 30 7
n 38 1
n 39 12
n 40 10
n 41 5
n 45 19
n 50 19
n 52 12
n 53 12
n 54 10
n 56 5
n 57 8
n 59 12
n 60 11
n 61 5
n 62 4
n 64 9
n 65 3
n 67 12
n 69 13
n 72 19
n 74 20
n 75 16
n 77 5
n 78 5
n 81 14
n 85 19
n 86 18
n 87 2
n 88 15
n 90 12
n 92 2
n 93 17
n 95 11
n 96 3
n 97 6
